\ENCODING=ISO-8859-1
\Problem name: ILOG.CPLEX

Minimize
 obj1: - 0.000332204479617595 w1 + 0.00137506666572687 w2
       + 0.0012325120051647 w3 + 0.0012325120051647 w4
       + 0.000549597862425995 w5
Subject To
 c1: w1 + w2 + w3 + w4 + w5  = 1
Bounds
 0 <= w1 <= 1
 0 <= w2 <= 1
 0 <= w3 <= 1
 0 <= w4 <= 1
 0 <= w5 <= 1
End
